####################################################################### 
# 
# This file contains crystal structure data downloaded from the 
# Cambridge Structural Database (CSD) hosted by the Cambridge 
# Crystallographic Data Centre (CCDC).
# 
# Full information about CCDC data access policies and citation 
# guidelines are available at http://www.ccdc.cam.ac.uk/access/V1 
# 
# Audit and citation data items may have been added by the CCDC. 
# Please retain this information to preserve the provenance of 
# this file and to allow appropriate attribution of the data. 
# 
#######################################################################

data_NAHNLB01
#This CIF has been generated from an entry in the Cambridge Structural Database
_database_code_depnum_ccdc_archive 'CCDC 1216100'
_database_code_CSD               NAHNLB01
loop_
_citation_id
_citation_doi
_citation_year
1 10.1107/S0108768184002342 1984
_audit_creation_method           'Created from the CSD'
_audit_update_record             
;
2022-10-03 downloaded from the CCDC.
;
_database_code_NBS               555083
_chemical_formula_moiety         '(C6 H6 N1 O6 Zn1 1-)n,n(Na1 1+),n(H2 O1)'
_chemical_name_systematic        
'catena-(Sodium (\m~3~-nitrilotriacetato)-zinc monohydrate)'
_chemical_absolute_configuration unk
_diffrn_ambient_temperature      173
_exptl_crystal_density_diffrn    2.06739
#These two values have been output from a single CSD field.
_refine_ls_R_factor_gt           0.052
_refine_ls_wR_factor_gt          0.052
_diffrn_radiation_probe          x-ray
_symmetry_cell_setting           orthorhombic
_symmetry_space_group_name_H-M   'P 21 21 21'
_symmetry_Int_Tables_number      19
_space_group_name_Hall           'P 2ac 2ab'
loop_
_symmetry_equiv_pos_site_id
_symmetry_equiv_pos_as_xyz
1 x,y,z
2 1/2+x,1/2-y,-z
3 -x,1/2+y,1/2-z
4 1/2-x,-y,1/2+z
_cell_length_a                   7.869(4)
_cell_length_b                   9.783(6)
_cell_length_c                   12.292(6)
_cell_angle_alpha                90
_cell_angle_beta                 90
_cell_angle_gamma                90
_cell_volume                     946.268
_exptl_crystal_colour            colorless
_cell_formula_units_Z            4
loop_
_atom_site_label
_atom_site_type_symbol
_atom_site_fract_x
_atom_site_fract_y
_atom_site_fract_z
Zn1 Zn -0.0801(2) -0.3168(1) -0.1768(1)
N1 N -0.2622(10) -0.4431(8) -0.0943(7)
O1 O -0.0838(10) -0.7407(7) -0.2145(5)
O2 O -0.0105(9) -0.5208(7) -0.2345(6)
O3 O -0.2055(9) -0.1722(7) -0.0760(6)
O4 O -0.3832(9) -0.1496(7) 0.0612(6)
O5 O -0.2694(9) -0.3047(8) -0.2934(5)
O6 O -0.5235(12) -0.3855(9) -0.3341(8)
C1 C -0.0876(14) -0.6147(9) -0.1868(8)
C2 C -0.1915(13) -0.5823(11) -0.0867(9)
C3 C -0.2958(13) -0.2208(9) -0.0027(8)
C4 C -0.2883(15) -0.3763(10) 0.0140(9)
C5 C -0.4217(14) -0.4396(10) -0.1616(9)
C6 C -0.4026(16) -0.3726(11) -0.2710(10)
H1 H -0.1191 -0.5892 -0.0235
H2 H -0.2821 -0.6476 -0.0803
H3 H -0.3928 -0.4091 0.0464
H4 H -0.1955 -0.3999 0.0622
H5 H -0.4596 -0.5326 -0.1713
H6 H -0.5078 -0.3906 -0.1208
Zn1 Zn -0.5801(2) -0.1832(1) 0.1768(1)
Zn1 Zn 0.0801(2) -0.8168(1) -0.3232(1)
O1 O 0.0838(10) -0.2407(7) -0.2855(5)
O4 O 0.1168(9) -0.3504(7) -0.0612(6)
Na1 Na 0.2037(5) -0.4429(4) -0.3600(3)
O7 O 0.2212(10) -0.3845(8) -0.5417(6)

#END
