####################################################################### 
# 
# This file contains crystal structure data downloaded from the 
# Cambridge Structural Database (CSD) hosted by the Cambridge 
# Crystallographic Data Centre (CCDC).
# 
# Full information about CCDC data access policies and citation 
# guidelines are available at http://www.ccdc.cam.ac.uk/access/V1 
# 
# Audit and citation data items may have been added by the CCDC. 
# Please retain this information to preserve the provenance of 
# this file and to allow appropriate attribution of the data. 
# 
#######################################################################

data_Zn-ladder
_audit_block_doi                 10.5517/cc5cvbp
_database_code_depnum_ccdc_archive 'CCDC 160342'
loop_
_citation_id
_citation_doi
_citation_year
1 10.1016/S1387-7003(00)00211-2 2001
_audit_update_record             
;
2001-03-15 deposited with the CCDC.	2022-10-03 downloaded from the CCDC.
;

_audit_creation_method           SHELXL-97
_chemical_name_systematic        
; 
? 
;
_chemical_name_common            ?
_chemical_melting_point          ?
_chemical_formula_moiety         ?
_chemical_formula_sum            'C16 H16 Cl N3 O7 Zn2'
_chemical_formula_weight         528.51

loop_
_atom_type_symbol
_atom_type_description
_atom_type_scat_dispersion_real
_atom_type_scat_dispersion_imag
_atom_type_scat_source
C C 0.0033 0.0016 'International Tables Vol C Tables 4.2.6.8 and 6.1.1.4'
H H 0.0000 0.0000 'International Tables Vol C Tables 4.2.6.8 and 6.1.1.4'
N N 0.0061 0.0033 'International Tables Vol C Tables 4.2.6.8 and 6.1.1.4'
O O 0.0106 0.0060 'International Tables Vol C Tables 4.2.6.8 and 6.1.1.4'
Zn Zn 0.2839 1.4301 'International Tables Vol C Tables 4.2.6.8 and 6.1.1.4'
Cl Cl 0.1484 0.1585 'International Tables Vol C Tables 4.2.6.8 and 6.1.1.4'

_symmetry_cell_setting           ?
_symmetry_space_group_name_H-M   ?

loop_
_symmetry_equiv_pos_as_xyz
'x, y, z'
'-x+1/2, y+1/2, -z+1/2'
'-x, -y, -z'
'x-1/2, -y-1/2, z-1/2'

_cell_length_a                   9.4926(2)
_cell_length_b                   8.8679(2)
_cell_length_c                   22.9175(5)
_cell_angle_alpha                90.00
_cell_angle_beta                 99.6419(13)
_cell_angle_gamma                90.00
_cell_volume                     1901.93(7)
_cell_formula_units_Z            4
_cell_measurement_temperature    293(2)
_cell_measurement_reflns_used    32981
_cell_measurement_theta_min      3.46
_cell_measurement_theta_max      27.88

_exptl_crystal_description       block
_exptl_crystal_colour            colourless
_exptl_crystal_size_max          0.23
_exptl_crystal_size_mid          0.20
_exptl_crystal_size_min          0.28
_exptl_crystal_density_meas      ?
_exptl_crystal_density_diffrn    1.846
_exptl_crystal_density_method    'not measured'
_exptl_crystal_F_000             1064
_exptl_absorpt_coefficient_mu    2.708
_exptl_absorpt_correction_type   empirical
_exptl_absorpt_correction_T_min  0.071
_exptl_absorpt_correction_T_max  0.075
_exptl_absorpt_process_details   '(Blessing, 1995, 1997)'

_exptl_special_details           
; 
? 
;

_diffrn_ambient_temperature      293(2)
_diffrn_radiation_wavelength     0.71073
_diffrn_radiation_type           MoK\a
_diffrn_radiation_source         'fine-focus sealed tube'
_diffrn_radiation_monochromator  graphite
_diffrn_measurement_device_type  'NONIUS KappaCCD'
_diffrn_measurement_method       CCD
_diffrn_detector_area_resol_mean 0.76
_diffrn_standards_number         ?
_diffrn_standards_interval_count ?
_diffrn_standards_interval_time  ?
_diffrn_standards_decay_%        ?
_diffrn_reflns_number            32981
_diffrn_reflns_av_R_equivalents  0.0697
_diffrn_reflns_av_sigmaI/netI    0.0363
_diffrn_reflns_limit_h_min       -12
_diffrn_reflns_limit_h_max       12
_diffrn_reflns_limit_k_min       -11
_diffrn_reflns_limit_k_max       11
_diffrn_reflns_limit_l_min       -30
_diffrn_reflns_limit_l_max       30
_diffrn_reflns_theta_min         3.46
_diffrn_reflns_theta_max         27.88
_reflns_number_total             4538
_reflns_number_gt                3674
_reflns_threshold_expression     >2sigma(I)

_computing_data_collection       'KappaCCD (Nonius B. V., 1998)'
_computing_cell_refinement       'HKL Scalepack (Otwinowski & Minor, 1997)'
_computing_data_reduction        HKL
_computing_structure_solution    'SHELXS-97 (Sheldrick, 1990)'
_computing_structure_refinement  'SHELXL-97 (Sheldrick, 1997)'
_computing_molecular_graphics    'Bruker SHELXTL V5.1 (Sheldrick, 1998)'
_computing_publication_material  'SHELXL-97 (Sheldrick, 1997)'

_refine_special_details          
; 
Refinement of F^2^ against ALL reflections.  The weighted R-factor wR and 
goodness of fit S are based on F^2^, conventional R-factors R are based 
on F, with F set to zero for negative F^2^. The threshold expression of 
F^2^ > 2sigma(F^2^) is used only for calculating R-factors(gt) etc. and is 
not relevant to the choice of reflections for refinement.  R-factors based 
on F^2^ are statistically about twice as large as those based on F, and R- 
factors based on ALL data will be even larger. 
;

_refine_ls_structure_factor_coef Fsqd
_refine_ls_matrix_type           full
_refine_ls_weighting_scheme      calc
_refine_ls_weighting_details     
'calc w=1/[\s^2^(Fo^2^)+(0.0407P)^2^+0.9904P] where P=(Fo^2^+2Fc^2^)/3'
_atom_sites_solution_primary     direct
_atom_sites_solution_secondary   difmap
_atom_sites_solution_hydrogens   geom
_refine_ls_hydrogen_treatment    mixed
_refine_ls_extinction_method     SHELXL
_refine_ls_extinction_coef       0.0043(5)
_refine_ls_extinction_expression Fc^*^=kFc[1+0.001xFc^2^\l^3^/sin(2\q)]^-1/4^
_refine_ls_number_reflns         4538
_refine_ls_number_parameters     327
_refine_ls_number_restraints     0
_refine_ls_R_factor_all          0.0474
_refine_ls_R_factor_gt           0.0334
_refine_ls_wR_factor_ref         0.0811
_refine_ls_wR_factor_gt          0.0760
_refine_ls_goodness_of_fit_ref   1.016
_refine_ls_restrained_S_all      1.016
_refine_ls_shift/su_max          0.001
_refine_ls_shift/su_mean         0.000

loop_
_atom_site_label
_atom_site_type_symbol
_atom_site_fract_x
_atom_site_fract_y
_atom_site_fract_z
_atom_site_U_iso_or_equiv
_atom_site_adp_type
_atom_site_occupancy
_atom_site_symmetry_multiplicity
_atom_site_calc_flag
_atom_site_refinement_flags
_atom_site_disorder_assembly
_atom_site_disorder_group
Cl1 Cl 0.59743(7) 0.82694(10) 0.11429(3) 0.0512(2) Uani 1 1 d . . .
Zn1 Zn 0.97229(3) 1.31411(3) 0.131336(11) 0.02592(10) Uani 1 1 d . . .
Zn2 Zn 0.78790(3) 0.82382(3) 0.187972(11) 0.02649(10) Uani 1 1 d . . .
O1 O 1.08081(18) 1.14971(18) 0.17993(7) 0.0307(4) Uani 1 1 d . . .
O2 O 0.88057(18) 1.01868(19) 0.17033(8) 0.0365(4) Uani 1 1 d . . .
O3 O 0.9012(2) 0.64581(19) 0.16460(7) 0.0374(4) Uani 1 1 d . . .
O4 O 1.05694(17) 0.46652(18) 0.19723(7) 0.0316(4) Uani 1 1 d . . .
O5 O 0.69836(18) 0.8145(2) 0.26161(8) 0.0369(4) Uani 1 1 d . . .
O6 O 0.73362(18) 0.84384(19) 0.35958(7) 0.0315(4) Uani 1 1 d . . .
O7 O 1.1456(3) 1.2592(3) 0.30935(13) 0.0564(6) Uani 1 1 d . . .
N1 N 1.1135(2) 1.3923(2) 0.07522(8) 0.0296(4) Uani 1 1 d . . .
N2 N 0.8954(2) 1.2054(2) 0.04879(9) 0.0298(4) Uani 1 1 d . . .
N3 N 0.9830(2) 0.82390(19) 0.25862(8) 0.0229(4) Uani 1 1 d . . .
H1 H 1.231(3) 1.529(3) 0.1309(13) 0.040(7) Uiso 1 1 d . . .
H2 H 1.390(3) 1.593(4) 0.0661(13) 0.051(9) Uiso 1 1 d . . .
H3 H 1.356(3) 1.503(3) -0.0296(14) 0.055(9) Uiso 1 1 d . . .
H4 H 1.169(3) 1.334(3) -0.0535(14) 0.037(8) Uiso 1 1 d . . .
H7 H 0.984(3) 1.183(3) -0.0822(15) 0.051(9) Uiso 1 1 d . . .
H7B H 1.106(4) 1.289(4) 0.3288(18) 0.057(13) Uiso 1 1 d . . .
H7A H 1.121(5) 1.271(6) 0.273(3) 0.110(18) Uiso 1 1 d . . .
H8 H 0.787(3) 1.025(4) -0.0954(15) 0.062(10) Uiso 1 1 d . . .
H9 H 0.659(3) 0.987(4) -0.0188(14) 0.054(9) Uiso 1 1 d . . .
H10 H 0.728(3) 1.101(3) 0.0690(13) 0.041(8) Uiso 1 1 d . . .
H11B H 1.147(3) 0.976(3) 0.2661(12) 0.031(7) Uiso 1 1 d . . .
H11A H 1.143(3) 0.864(3) 0.2147(12) 0.036(7) Uiso 1 1 d . . .
H13A H 0.975(3) 0.611(3) 0.2899(11) 0.027(6) Uiso 1 1 d . . .
H13B H 1.127(3) 0.656(3) 0.2788(11) 0.028(7) Uiso 1 1 d . . .
H15B H 0.935(3) 0.988(3) 0.3116(12) 0.037(7) Uiso 1 1 d . . .
H15A H 0.991(3) 0.840(3) 0.3474(14) 0.037(7) Uiso 1 1 d . . .
C1 C 1.2207(3) 1.4897(3) 0.09127(12) 0.0355(6) Uani 1 1 d . . .
C2 C 1.3143(3) 1.5314(3) 0.05380(13) 0.0414(6) Uani 1 1 d . . .
C3 C 1.2956(3) 1.4718(4) -0.00202(13) 0.0452(7) Uani 1 1 d . . .
C4 C 1.1848(3) 1.3708(4) -0.01921(13) 0.0415(6) Uani 1 1 d . . .
C5 C 1.0948(3) 1.3338(3) 0.02024(10) 0.0289(5) Uani 1 1 d . . .
C6 C 0.9713(3) 1.2295(3) 0.00495(10) 0.0289(5) Uani 1 1 d . . .
C7 C 0.9330(3) 1.1633(3) -0.05028(12) 0.0391(6) Uani 1 1 d . . .
C8 C 0.8141(3) 1.0726(4) -0.06059(13) 0.0456(7) Uani 1 1 d . . .
C9 C 0.7359(3) 1.0479(3) -0.01593(12) 0.0423(6) Uani 1 1 d . . .
C10 C 0.7803(3) 1.1170(3) 0.03832(12) 0.0368(6) Uani 1 1 d . . .
C11 C 1.0842(2) 0.9253(3) 0.23615(11) 0.0277(5) Uani 1 1 d . . .
C12 C 1.0084(2) 1.0395(3) 0.19276(10) 0.0262(5) Uani 1 1 d . . .
C13 C 1.0311(3) 0.6664(3) 0.26319(11) 0.0270(5) Uani 1 1 d . . .
C14 C 0.9951(2) 0.5875(3) 0.20349(10) 0.0273(5) Uani 1 1 d . . .
C15 C 0.9326(3) 0.8795(3) 0.31170(11) 0.0298(5) Uani 1 1 d . . .
C16 C 0.7762(3) 0.8412(3) 0.31082(10) 0.0273(5) Uani 1 1 d . . .

loop_
_atom_site_aniso_label
_atom_site_aniso_U_11
_atom_site_aniso_U_22
_atom_site_aniso_U_33
_atom_site_aniso_U_23
_atom_site_aniso_U_13
_atom_site_aniso_U_12
Cl1 0.0310(3) 0.0853(6) 0.0347(4) 0.0036(3) -0.0023(3) -0.0122(3)
Zn1 0.02912(16) 0.02916(16) 0.02063(15) 0.00012(10) 0.00756(11) 0.00023(11)
Zn2 0.02483(16) 0.03099(16) 0.02379(15) -0.00059(10) 0.00447(11) -0.00232(11)
O1 0.0316(9) 0.0270(8) 0.0343(9) 0.0044(7) 0.0074(7) -0.0038(7)
O2 0.0335(9) 0.0325(9) 0.0402(10) 0.0097(8) -0.0037(8) -0.0040(7)
O3 0.0512(11) 0.0343(9) 0.0243(9) -0.0039(7) -0.0002(8) 0.0078(8)
O4 0.0347(9) 0.0286(9) 0.0330(9) -0.0059(7) 0.0100(7) 0.0015(7)
O5 0.0265(9) 0.0591(12) 0.0264(9) -0.0029(8) 0.0085(7) -0.0061(8)
O6 0.0316(9) 0.0390(9) 0.0265(9) 0.0014(7) 0.0128(7) 0.0004(7)
O7 0.0491(14) 0.0822(18) 0.0398(14) 0.0019(12) 0.0130(12) 0.0061(13)
N1 0.0336(11) 0.0336(11) 0.0225(10) 0.0011(8) 0.0075(8) 0.0008(9)
N2 0.0323(11) 0.0335(11) 0.0243(10) -0.0023(8) 0.0065(8) 0.0006(9)
N3 0.0236(9) 0.0231(9) 0.0232(9) -0.0020(7) 0.0077(7) -0.0010(7)
C1 0.0383(14) 0.0388(14) 0.0292(13) 0.0020(11) 0.0054(11) -0.0032(11)
C2 0.0342(14) 0.0497(16) 0.0410(15) 0.0056(13) 0.0083(12) -0.0073(13)
C3 0.0360(14) 0.0629(19) 0.0401(16) 0.0086(14) 0.0165(12) -0.0021(14)
C4 0.0415(15) 0.0595(18) 0.0262(14) -0.0022(13) 0.0134(12) 0.0038(14)
C5 0.0314(12) 0.0332(12) 0.0235(11) 0.0032(9) 0.0082(10) 0.0048(10)
C6 0.0323(12) 0.0337(12) 0.0212(11) 0.0011(9) 0.0060(9) 0.0101(10)
C7 0.0469(16) 0.0476(16) 0.0241(13) -0.0035(11) 0.0095(12) 0.0034(12)
C8 0.0536(17) 0.0505(17) 0.0296(14) -0.0107(12) -0.0018(13) 0.0031(14)
C9 0.0401(15) 0.0439(16) 0.0404(15) -0.0050(12) -0.0003(12) -0.0043(13)
C10 0.0351(14) 0.0431(15) 0.0325(14) -0.0015(12) 0.0064(11) -0.0034(12)
C11 0.0223(11) 0.0293(12) 0.0320(13) 0.0030(10) 0.0061(10) -0.0026(10)
C12 0.0302(12) 0.0256(11) 0.0240(11) -0.0042(9) 0.0077(9) -0.0004(9)
C13 0.0302(13) 0.0258(12) 0.0247(12) 0.0008(9) 0.0038(10) 0.0011(10)
C14 0.0304(12) 0.0272(11) 0.0259(12) 0.0010(9) 0.0093(10) -0.0025(10)
C15 0.0289(12) 0.0332(13) 0.0278(13) -0.0078(10) 0.0063(10) -0.0014(10)
C16 0.0284(12) 0.0279(12) 0.0267(12) -0.0006(9) 0.0076(10) 0.0006(9)

_geom_special_details            
; 
All esds (except the esd in the dihedral angle between two l.s. planes) 
are estimated using the full covariance matrix.  The cell esds are taken 
into account individually in the estimation of esds in distances, angles 
and torsion angles; correlations between esds in cell parameters are only 
used when they are defined by crystal symmetry.  An approximate (isotropic) 
treatment of cell esds is used for estimating esds involving l.s. planes. 
;

loop_
_geom_bond_atom_site_label_1
_geom_bond_atom_site_label_2
_geom_bond_distance
_geom_bond_site_symmetry_2
_geom_bond_publ_flag
Cl1 Zn2 2.2580(7) . y
Zn1 O1 2.0106(16) . y
Zn1 O6 2.0173(17) 2_655 y
Zn1 O4 2.0848(16) 1_565 y
Zn1 N1 2.1233(19) . y
Zn1 N2 2.140(2) . y
Zn2 O2 2.0106(17) . y
Zn2 O5 2.0143(17) . y
Zn2 O3 2.0318(17) . y
Zn2 N3 2.2467(19) . y
O1 C12 1.258(3) . ?
O2 C12 1.250(3) . ?
O3 C14 1.261(3) . ?
O4 C14 1.243(3) . ?
O4 Zn1 2.0848(16) 1_545 y
O5 C16 1.263(3) . ?
O6 C16 1.251(3) . ?
O6 Zn1 2.0173(17) 2_645 y
N1 C1 1.339(3) . ?
N1 C5 1.346(3) . ?
N2 C10 1.334(3) . ?
N2 C6 1.348(3) . ?
N3 C15 1.465(3) . ?
N3 C13 1.468(3) . ?
N3 C11 1.470(3) . ?
C1 C2 1.386(4) . ?
C2 C3 1.368(4) . ?
C3 C4 1.387(4) . ?
C4 C5 1.383(4) . ?
C5 C6 1.488(3) . ?
C6 C7 1.387(4) . ?
C7 C8 1.374(4) . ?
C8 C9 1.379(4) . ?
C9 C10 1.387(4) . ?
C11 C12 1.514(3) . ?
C13 C14 1.524(3) . ?
C15 C16 1.520(3) . ?

loop_
_geom_angle_atom_site_label_1
_geom_angle_atom_site_label_2
_geom_angle_atom_site_label_3
_geom_angle
_geom_angle_site_symmetry_1
_geom_angle_site_symmetry_3
_geom_angle_publ_flag
O1 Zn1 O6 116.94(7) . 2_655 y
O1 Zn1 O4 88.24(7) . 1_565 y
O6 Zn1 O4 95.92(7) 2_655 1_565 y
O1 Zn1 N1 104.79(7) . . y
O6 Zn1 N1 137.79(7) 2_655 . y
O4 Zn1 N1 91.22(7) 1_565 . y
O1 Zn1 N2 103.32(7) . . y
O6 Zn1 N2 87.55(7) 2_655 . y
O4 Zn1 N2 164.90(7) 1_565 . y
N1 Zn1 N2 76.58(8) . . y
O2 Zn2 O5 117.65(7) . . y
O2 Zn2 O3 110.24(8) . . y
O5 Zn2 O3 120.35(7) . . y
O2 Zn2 N3 78.99(6) . . y
O5 Zn2 N3 78.98(7) . . y
O3 Zn2 N3 77.37(7) . . y
O2 Zn2 Cl1 99.30(5) . . y
O5 Zn2 Cl1 103.28(5) . . y
O3 Zn2 Cl1 101.84(5) . . y
N3 Zn2 Cl1 177.65(5) . . y
C12 O1 Zn1 116.34(15) . . y
C12 O2 Zn2 118.13(15) . . y
C14 O3 Zn2 118.35(15) . . y
C14 O4 Zn1 120.73(15) . 1_545 ?
C16 O5 Zn2 118.32(15) . . ?
C16 O6 Zn1 123.62(16) . 2_645 ?
C1 N1 C5 118.7(2) . . ?
C1 N1 Zn1 124.90(17) . . ?
C5 N1 Zn1 116.35(16) . . ?
C10 N2 C6 118.9(2) . . ?
C10 N2 Zn1 124.87(17) . . ?
C6 N2 Zn1 116.23(16) . . ?
C15 N3 C13 113.69(19) . . ?
C15 N3 C11 114.11(18) . . ?
C13 N3 C11 113.16(18) . . ?
C15 N3 Zn2 104.71(14) . . ?
C13 N3 Zn2 105.08(13) . . ?
C11 N3 Zn2 104.83(13) . . ?
N1 C1 C2 122.6(3) . . ?
C3 C2 C1 118.7(3) . . ?
C2 C3 C4 119.3(3) . . ?
C5 C4 C3 119.3(3) . . ?
N1 C5 C4 121.4(2) . . ?
N1 C5 C6 115.8(2) . . ?
C4 C5 C6 122.8(2) . . ?
N2 C6 C7 121.5(2) . . ?
N2 C6 C5 114.9(2) . . ?
C7 C6 C5 123.6(2) . . ?
C8 C7 C6 119.1(3) . . ?
C7 C8 C9 119.6(3) . . ?
C8 C9 C10 118.3(3) . . ?
N2 C10 C9 122.5(3) . . ?
N3 C11 C12 111.86(18) . . ?
O2 C12 O1 123.3(2) . . ?
O2 C12 C11 119.6(2) . . ?
O1 C12 C11 117.1(2) . . ?
N3 C13 C14 110.64(19) . . ?
O4 C14 O3 124.3(2) . . ?
O4 C14 C13 117.4(2) . . ?
O3 C14 C13 118.2(2) . . ?
N3 C15 C16 111.60(19) . . ?
O6 C16 O5 125.0(2) . . ?
O6 C16 C15 116.4(2) . . ?
O5 C16 C15 118.6(2) . . ?

_diffrn_measured_fraction_theta_max 0.998
_diffrn_reflns_theta_full        27.88
_diffrn_measured_fraction_theta_full 0.998
_refine_diff_density_max         0.396
_refine_diff_density_min         -0.610
_refine_diff_density_rms         0.076


